SECTION Graph
Nodes 239
Edges 238

E 1 70 307
E 1 262 195
E 1 335 195
E 1 596 202
E 1 602 192
E 2 64 291
E 3 184 203
E 4 29 295
E 4 118 308
E 4 144 300
E 4 401 189
E 5 424 193
E 6 612 195
E 7 288 189
E 8 46 304
E 8 528 204
E 9 21 291
E 9 28 294
E 9 105 301
E 9 158 300
E 9 374 194
E 9 561 203
E 10 64 304
E 10 99 309
E 10 129 302
E 10 499 193
E 10 619 188
E 11 43 300
E 12 23 294
E 12 194 199
E 12 313 200
E 12 522 202
E 13 522 204
E 13 605 191
E 14 18 303
E 15 18 291
E 15 116 299
E 15 387 204
E 16 106 296
E 16 483 191
E 17 211 203
E 18 104 297
E 18 452 202
E 19 481 196
E 19 506 194
E 20 76 296
E 20 430 203
E 21 53 299
E 21 80 297
E 21 189 192
E 21 514 203
E 22 498 193
E 23 87 297
E 23 487 199
E 24 86 299
E 24 369 198
E 25 95 307
E 25 101 303
E 26 625 199
E 27 223 194
E 28 149 307
E 30 274 203
E 31 88 299
E 31 516 190
E 32 84 291
E 33 128 301
E 34 386 208
E 35 43 297
E 36 358 195
E 36 397 196
E 37 75 298
E 37 151 304
E 38 93 297
E 38 121 301
E 39 189 196
E 40 218 213
E 41 409 194
E 41 609 200
E 42 455 194
E 43 374 193
E 44 248 199
E 45 53 300
E 46 137 297
E 47 87 292
E 47 137 297
E 47 518 196
E 48 561 200
E 49 442 201
E 50 409 205
E 50 476 199
E 50 486 191
E 50 514 197
E 51 120 297
E 51 632 198
E 52 80 295
E 52 397 198
E 52 612 187
E 53 67 301
E 54 135 301
E 55 443 193
E 56 76 302
E 56 114 298
E 56 368 201
E 57 156 297
E 57 493 197
E 58 152 296
E 59 235 203
E 60 387 195
E 61 335 201
E 62 67 295
E 62 455 192
E 63 517 199
E 63 622 204
E 64 113 298
E 64 369 199
E 65 135 304
E 65 516 190
E 66 483 193
E 67 223 194
E 68 114 311
E 68 292 194
E 68 318 199
E 68 483 197
E 69 127 305
E 69 424 203
E 70 93 301
E 70 147 303
E 70 457 204
E 70 474 194
E 71 148 303
E 72 288 203
E 72 401 198
E 73 121 297
E 74 300 201
E 75 314 203
E 77 181 201
E 78 597 206
E 79 541 201
E 80 124 306
E 81 281 192
E 81 622 191
E 82 560 202
E 83 100 294
E 84 457 193
E 85 476 199
E 89 486 198
E 90 287 199
E 91 160 307
E 91 541 190
E 92 100 301
E 94 596 204
E 95 111 295
E 96 386 188
E 96 474 201
E 97 274 198
E 97 386 199
E 98 609 188
E 99 248 196
E 99 511 191
E 100 619 199
E 101 511 200
E 102 597 194
E 103 194 197
E 106 358 189
E 107 140 299
E 108 625 200
E 109 262 185
E 109 291 192
E 110 358 208
E 111 346 201
E 111 481 195
E 112 138 309
E 114 266 195
E 114 341 196
E 114 543 196
E 115 560 194
E 115 632 193
E 116 139 289
E 116 590 198
E 117 292 197
E 117 637 197
E 118 499 193
E 119 622 204
E 120 135 297
E 120 602 196
E 121 287 200
E 121 541 204
E 122 281 201
E 123 211 194
E 123 637 197
E 124 157 303
E 125 139 299
E 126 368 195
E 127 154 297
E 127 481 196
E 128 153 304
E 128 517 195
E 130 430 207
E 131 132 297
E 131 493 195
E 132 141 303
E 132 361 193
E 132 443 200
E 133 442 191
E 133 487 198
E 134 246 199
E 135 329 201
E 136 528 196
E 137 506 192
E 138 318 193
E 140 313 191
E 141 269 196
E 141 597 201
E 142 223 206
E 143 246 195
E 143 518 191
E 144 433 197
E 144 625 198
E 145 452 200
E 146 346 202
E 148 158 297
E 150 543 201
E 152 235 199
E 152 329 187
E 152 433 194
E 153 155 302
E 153 157 300
E 153 361 197
E 153 590 199
E 154 181 195
E 155 291 200
E 157 314 195
E 159 443 191
E 184 229 111
E 218 266 101
E 229 269 97
E 300 605 101
E 341 498 104
END
SECTION Terminals
T 1
T 2
T 3
T 4
T 5
T 6
T 7
T 8
T 9
T 10
T 11
T 12
T 13
T 14
T 15
T 16
T 17
T 18
T 19
T 20
T 21
T 22
T 23
T 24
T 25
T 26
T 27
T 28
T 29
T 30
T 31
T 32
T 33
T 34
T 35
T 36
T 37
T 38
T 39
T 40
T 41
T 42
T 43
T 44
T 45
T 46
T 47
T 48
T 49
T 50
T 51
T 52
T 53
T 54
T 55
T 56
T 57
T 58
T 59
T 60
T 61
T 62
T 63
T 64
T 65
T 66
T 67
T 68
T 69
T 70
T 71
T 72
T 73
T 74
T 75
T 76
T 77
T 78
T 79
T 80
T 81
T 82
T 83
T 84
T 85
T 86
T 87
T 88
T 89
T 90
T 91
T 92
T 93
T 94
T 95
T 96
T 97
T 98
T 99
T 100
T 101
T 102
T 103
T 104
T 105
T 106
T 107
T 108
T 109
T 110
T 111
T 112
T 113
T 114
T 115
T 116
T 117
T 118
T 119
T 120
T 121
T 122
T 123
T 124
T 125
T 126
T 127
T 128
T 129
T 130
T 131
T 132
T 133
T 134
T 135
T 136
T 137
T 138
T 139
T 140
T 141
T 142
T 143
T 144
T 145
T 146
T 147
T 148
T 149
T 150
T 151
T 152
T 153
T 154
T 155
T 156
T 157
T 158
T 159
T 160
END
SECTION Cost
54132
END
